(declare-sort sk 0)
(declare-sort fun1 0)
(declare-sort fun12 0)
(declare-sort fun13 0)
(declare-sort fun14 0)
(declare-sort sk2 0)
(declare-datatype list ((nil) (cons (head sk) (tail list))))
(declare-datatype Nat ((Z) (S (proj1-S Nat))))
(declare-fun take (Nat list) list)
(declare-fun map2 (fun1 list) list)
(declare-fun apply1 (fun1 sk) sk)
(declare-fun apply12 (fun12 sk) sk2)
(declare-fun apply13 (fun13 sk2) sk)
(declare-fun apply14 (fun14 sk2) sk2)
(assert (forall ((y list)) (= (take Z y) nil)))
(assert (forall ((z Nat)) (= (take (S z) nil) nil)))
(assert
  (forall ((z Nat) (x2 sk) (x3 list))
    (= (take (S z) (cons x2 x3)) (cons x2 (take z x3)))))
(assert (forall ((x fun1)) (= (map2 x nil) nil)))
(assert
  (forall ((x fun1) (z sk) (xs list))
    (= (map2 x (cons z xs)) (cons (apply1 x z) (map2 x xs)))))
